33D32945 STP File, STP Format Version 1.0

SECTION Comments
Name "edge_n11_d5_s36"
Problem "Euclidean Steiner Tree Problem"
Remark "Generated with STPGenerator. 5 dimensions."
END

SECTION Graph
Nodes 11
END

SECTION Coordinates
DDDDD 0 0.3812597861 0.3812597861 0.3812597861 0.3812597861 0.3812597861
DDDDD 1 0.3492478469 0.3492478469 0.3492478469 0.3492478469 0.3492478469
DDDDD 2 0.8728369269 0.8728369269 0.8728369269 0.8728369269 0.8728369269
DDDDD 3 0.9995752056 0.9995752056 0.9995752056 0.9995752056 0.9995752056
DDDDD 4 0.5993793447 0.5993793447 0.5993793447 0.5993793447 0.5993793447
DDDDD 5 0.9228681605 0.9228681605 0.9228681605 0.9228681605 0.9228681605
DDDDD 6 0.4677818946 0.4677818946 0.4677818946 0.4677818946 0.4677818946
DDDDD 7 0.0902298559 0.0902298559 0.0902298559 0.0902298559 0.0902298559
DDDDD 8 0.4658759178 0.4658759178 0.4658759178 0.4658759178 0.4658759178
DDDDD 9 0.5137684199 0.5137684199 0.5137684199 0.5137684199 0.5137684199
DDDDD 10 0.8042997703 0.8042997703 0.8042997703 0.8042997703 0.8042997703
END
